/* Cplex Data generated on 2017-12-16 */

k = 60;

b = 30;

AtomicConstraints = {
	 <1, 51>,
	 <1, 50>,
	 <1, 53>,
	 <1, 54>,
	 <1, 59>,
	 <2, 13>,
	 <2, 51>,
	 <2, 50>,
	 <2, 53>,
	 <2, 54>,
	 <2, 59>,
	 <3, 11>,
	 <3, 12>,
	 <3, 13>,
	 <3, 51>,
	 <3, 50>,
	 <3, 53>,
	 <3, 54>,
	 <3, 59>,
	 <4, 51>,
	 <4, 50>,
	 <4, 53>,
	 <4, 56>,
	 <4, 58>,
	 <4, 55>,
	 <4, 54>,
	 <4, 59>,
	 <5, 51>,
	 <5, 50>,
	 <5, 53>,
	 <5, 56>,
	 <5, 58>,
	 <5, 55>,
	 <5, 54>,
	 <5, 59>,
	 <6, 51>,
	 <6, 50>,
	 <6, 53>,
	 <6, 56>,
	 <6, 58>,
	 <6, 55>,
	 <6, 54>,
	 <6, 59>,
	 <7, 1>,
	 <7, 51>,
	 <7, 50>,
	 <7, 53>,
	 <7, 56>,
	 <7, 58>,
	 <7, 55>,
	 <7, 54>,
	 <7, 59>,
	 <8, 1>,
	 <8, 2>,
	 <8, 3>,
	 <8, 11>,
	 <8, 12>,
	 <8, 13>,
	 <8, 51>,
	 <8, 50>,
	 <8, 53>,
	 <8, 60>,
	 <8, 54>,
	 <8, 59>,
	 <9, 1>,
	 <9, 2>,
	 <9, 3>,
	 <9, 11>,
	 <9, 12>,
	 <9, 13>,
	 <9, 51>,
	 <9, 50>,
	 <9, 53>,
	 <9, 60>,
	 <9, 54>,
	 <9, 59>,
	 <10, 1>,
	 <10, 2>,
	 <10, 3>,
	 <10, 11>,
	 <10, 12>,
	 <10, 13>,
	 <10, 51>,
	 <10, 50>,
	 <10, 53>,
	 <10, 60>,
	 <10, 54>,
	 <10, 59>,
	 <11, 54>,
	 <11, 59>,
	 <12, 11>,
	 <12, 53>,
	 <12, 54>,
	 <12, 59>,
	 <13, 11>,
	 <13, 12>,
	 <13, 50>,
	 <13, 53>,
	 <13, 54>,
	 <13, 59>,
	 <14, 1>,
	 <14, 2>,
	 <14, 3>,
	 <14, 11>,
	 <14, 12>,
	 <14, 13>,
	 <14, 51>,
	 <14, 50>,
	 <14, 53>,
	 <14, 56>,
	 <14, 60>,
	 <14, 54>,
	 <14, 59>,
	 <15, 1>,
	 <15, 2>,
	 <15, 3>,
	 <15, 10>,
	 <15, 11>,
	 <15, 12>,
	 <15, 13>,
	 <15, 51>,
	 <15, 50>,
	 <15, 53>,
	 <15, 56>,
	 <15, 60>,
	 <15, 54>,
	 <15, 59>,
	 <16, 1>,
	 <16, 2>,
	 <16, 3>,
	 <16, 9>,
	 <16, 10>,
	 <16, 11>,
	 <16, 12>,
	 <16, 13>,
	 <16, 51>,
	 <16, 50>,
	 <16, 53>,
	 <16, 60>,
	 <16, 54>,
	 <16, 59>,
	 <17, 33>,
	 <17, 20>,
	 <17, 21>,
	 <17, 37>,
	 <17, 32>,
	 <17, 22>,
	 <17, 23>,
	 <17, 24>,
	 <17, 41>,
	 <17, 44>,
	 <17, 38>,
	 <17, 45>,
	 <17, 25>,
	 <17, 27>,
	 <17, 28>,
	 <17, 30>,
	 <18, 33>,
	 <18, 20>,
	 <18, 21>,
	 <18, 42>,
	 <18, 37>,
	 <18, 32>,
	 <18, 22>,
	 <18, 23>,
	 <18, 24>,
	 <18, 41>,
	 <18, 43>,
	 <18, 44>,
	 <18, 38>,
	 <18, 45>,
	 <18, 25>,
	 <18, 27>,
	 <18, 28>,
	 <18, 30>,
	 <19, 33>,
	 <19, 20>,
	 <19, 21>,
	 <19, 42>,
	 <19, 37>,
	 <19, 32>,
	 <19, 22>,
	 <19, 23>,
	 <19, 24>,
	 <19, 41>,
	 <19, 43>,
	 <19, 38>,
	 <19, 45>,
	 <19, 25>,
	 <19, 26>,
	 <19, 28>,
	 <19, 29>,
	 <19, 36>,
	 <19, 30>,
	 <35, 33>,
	 <35, 20>,
	 <35, 21>,
	 <35, 42>,
	 <35, 39>,
	 <35, 37>,
	 <35, 32>,
	 <35, 22>,
	 <35, 23>,
	 <35, 24>,
	 <35, 41>,
	 <35, 43>,
	 <35, 40>,
	 <35, 38>,
	 <35, 45>,
	 <35, 25>,
	 <35, 26>,
	 <35, 29>,
	 <35, 36>,
	 <35, 34>,
	 <35, 30>,
	 <37, 33>,
	 <37, 30>,
	 <32, 33>,
	 <32, 20>,
	 <32, 21>,
	 <22, 20>,
	 <22, 21>,
	 <23, 20>,
	 <23, 21>,
	 <24, 21>,
	 <41, 42>,
	 <43, 42>,
	 <40, 39>,
	 <44, 33>,
	 <44, 37>,
	 <44, 30>,
	 <38, 33>,
	 <38, 20>,
	 <38, 21>,
	 <38, 37>,
	 <38, 32>,
	 <38, 22>,
	 <38, 23>,
	 <38, 24>,
	 <38, 30>,
	 <45, 33>,
	 <45, 20>,
	 <45, 21>,
	 <45, 32>,
	 <45, 22>,
	 <45, 23>,
	 <45, 24>,
	 <45, 41>,
	 <45, 30>,
	 <25, 33>,
	 <25, 20>,
	 <25, 21>,
	 <25, 42>,
	 <25, 32>,
	 <25, 22>,
	 <25, 23>,
	 <25, 24>,
	 <25, 41>,
	 <25, 43>,
	 <26, 20>,
	 <26, 21>,
	 <26, 42>,
	 <26, 23>,
	 <26, 24>,
	 <26, 41>,
	 <26, 43>,
	 <27, 33>,
	 <27, 20>,
	 <27, 21>,
	 <27, 37>,
	 <27, 32>,
	 <27, 22>,
	 <27, 23>,
	 <27, 24>,
	 <27, 41>,
	 <27, 38>,
	 <27, 45>,
	 <27, 25>,
	 <27, 30>,
	 <28, 33>,
	 <28, 20>,
	 <28, 21>,
	 <28, 42>,
	 <28, 37>,
	 <28, 32>,
	 <28, 22>,
	 <28, 23>,
	 <28, 24>,
	 <28, 41>,
	 <28, 43>,
	 <28, 38>,
	 <28, 45>,
	 <28, 25>,
	 <28, 30>,
	 <29, 33>,
	 <29, 20>,
	 <29, 21>,
	 <29, 42>,
	 <29, 37>,
	 <29, 32>,
	 <29, 22>,
	 <29, 23>,
	 <29, 24>,
	 <29, 41>,
	 <29, 43>,
	 <29, 38>,
	 <29, 45>,
	 <29, 25>,
	 <29, 26>,
	 <29, 30>,
	 <36, 33>,
	 <36, 20>,
	 <36, 21>,
	 <36, 42>,
	 <36, 39>,
	 <36, 37>,
	 <36, 32>,
	 <36, 22>,
	 <36, 23>,
	 <36, 24>,
	 <36, 41>,
	 <36, 43>,
	 <36, 40>,
	 <36, 45>,
	 <36, 25>,
	 <36, 26>,
	 <36, 30>,
	 <34, 33>,
	 <34, 20>,
	 <34, 21>,
	 <34, 42>,
	 <34, 39>,
	 <34, 32>,
	 <34, 22>,
	 <34, 23>,
	 <34, 24>,
	 <34, 41>,
	 <34, 43>,
	 <34, 40>,
	 <34, 25>,
	 <34, 26>,
	 <34, 30>,
	 <46, 33>,
	 <46, 20>,
	 <46, 21>,
	 <46, 37>,
	 <46, 32>,
	 <46, 22>,
	 <46, 23>,
	 <46, 24>,
	 <46, 31>,
	 <46, 44>,
	 <46, 38>,
	 <46, 30>,
	 <51, 50>,
	 <51, 53>,
	 <51, 54>,
	 <51, 59>,
	 <50, 53>,
	 <50, 54>,
	 <50, 59>,
	 <53, 54>,
	 <53, 59>,
	 <49, 33>,
	 <49, 17>,
	 <49, 18>,
	 <49, 19>,
	 <49, 35>,
	 <49, 20>,
	 <49, 21>,
	 <49, 42>,
	 <49, 39>,
	 <49, 37>,
	 <49, 32>,
	 <49, 22>,
	 <49, 23>,
	 <49, 24>,
	 <49, 41>,
	 <49, 43>,
	 <49, 40>,
	 <49, 31>,
	 <49, 44>,
	 <49, 38>,
	 <49, 45>,
	 <49, 25>,
	 <49, 26>,
	 <49, 27>,
	 <49, 28>,
	 <49, 29>,
	 <49, 36>,
	 <49, 34>,
	 <49, 30>,
	 <49, 46>,
	 <49, 60>,
	 <49, 54>,
	 <49, 59>,
	 <47, 33>,
	 <47, 17>,
	 <47, 18>,
	 <47, 19>,
	 <47, 35>,
	 <47, 20>,
	 <47, 21>,
	 <47, 42>,
	 <47, 39>,
	 <47, 37>,
	 <47, 32>,
	 <47, 22>,
	 <47, 23>,
	 <47, 24>,
	 <47, 41>,
	 <47, 43>,
	 <47, 40>,
	 <47, 31>,
	 <47, 44>,
	 <47, 38>,
	 <47, 45>,
	 <47, 25>,
	 <47, 26>,
	 <47, 27>,
	 <47, 28>,
	 <47, 29>,
	 <47, 36>,
	 <47, 34>,
	 <47, 30>,
	 <47, 46>,
	 <47, 60>,
	 <47, 54>,
	 <47, 59>,
	 <48, 33>,
	 <48, 17>,
	 <48, 18>,
	 <48, 19>,
	 <48, 35>,
	 <48, 20>,
	 <48, 21>,
	 <48, 42>,
	 <48, 39>,
	 <48, 37>,
	 <48, 32>,
	 <48, 22>,
	 <48, 23>,
	 <48, 24>,
	 <48, 41>,
	 <48, 43>,
	 <48, 40>,
	 <48, 31>,
	 <48, 44>,
	 <48, 38>,
	 <48, 45>,
	 <48, 25>,
	 <48, 26>,
	 <48, 27>,
	 <48, 28>,
	 <48, 29>,
	 <48, 36>,
	 <48, 34>,
	 <48, 30>,
	 <48, 46>,
	 <48, 60>,
	 <48, 54>,
	 <48, 59>,
	 <58, 56>,
	 <55, 56>,
	 <55, 58>,
	 <52, 60>,
	 <52, 54>,
	 <52, 59>,
	 <57, 11>,
	 <57, 12>,
	 <57, 13>,
	 <57, 33>,
	 <57, 17>,
	 <57, 18>,
	 <57, 19>,
	 <57, 35>,
	 <57, 20>,
	 <57, 21>,
	 <57, 42>,
	 <57, 39>,
	 <57, 37>,
	 <57, 32>,
	 <57, 22>,
	 <57, 23>,
	 <57, 24>,
	 <57, 41>,
	 <57, 43>,
	 <57, 40>,
	 <57, 31>,
	 <57, 44>,
	 <57, 38>,
	 <57, 45>,
	 <57, 25>,
	 <57, 26>,
	 <57, 27>,
	 <57, 28>,
	 <57, 29>,
	 <57, 36>,
	 <57, 34>,
	 <57, 30>,
	 <57, 46>,
	 <57, 51>,
	 <57, 50>,
	 <57, 53>,
	 <57, 49>,
	 <57, 47>,
	 <57, 48>,
	 <57, 60>,
	 <57, 52>,
	 <57, 54>,
	 <57, 59>,
	 }; 

SoftAtomicConstraints = {
	 <2, 1>,
	 <3, 2>,
	 <5, 4>,
	 <6, 5>,
	 <7, 6>,
	 <8, 9>,
	 <9, 10>,
	 <15, 14>,
	 <16, 15>,
	 <18, 17>,
	 <19, 18>,
	 <35, 19>,
	 <21, 20>,
	 <42, 21>,
	 <23, 22>,
	 <24, 23>,
	 <41, 24>,
	 <26, 25>,
	 <28, 27>,
	 <29, 28>,
	 <36, 29>,
	 <33, 30>,
	 <44, 31>,
	 <22, 32>,
	 <20, 33>,
	 <34, 36>,
	 <32, 37>,
	 <45, 38>,
	 <43, 41>,
	 <39, 42>,
	 <40, 43>,
	 <38, 44>,
	 <25, 45>,
	 <17, 46>,
	 <49, 47>,
	 <47, 48>,
	 <54, 59>,
	 }; 

DisjunctiveConstraints = {
	 <2, 3, 2, 1>,
	 <2, 11, 41, 2>,
	 <2, 12, 42, 2>,
	 <2, 13, 43, 2>,
	 <3, 11, 3, 41>,
	 <3, 12, 3, 42>,
	 <3, 13, 3, 43>,
	 <5, 6, 5, 4>,
	 <6, 1, 31, 6>,
	 <6, 7, 6, 5>,
	 <7, 2, 32, 7>,
	 <7, 11, 41, 7>,
	 <7, 12, 42, 7>,
	 <9, 8, 9, 10>,
	 <13, 60, 30, 13>,
	 <14, 10, 40, 14>,
	 <15, 9, 39, 15>,
	 <15, 10, 15, 40>,
	 <15, 16, 15, 14>,
	 <16, 8, 38, 16>,
	 <16, 9, 16, 39>,
	 <17, 18, 17, 46>,
	 <17, 41, 11, 17>,
	 <17, 25, 55, 17>,
	 <18, 19, 18, 17>,
	 <18, 42, 12, 18>,
	 <18, 43, 13, 18>,
	 <19, 35, 19, 18>,
	 <35, 39, 9, 35>,
	 <35, 40, 10, 35>,
	 <33, 20, 33, 30>,
	 <20, 21, 20, 33>,
	 <32, 22, 32, 37>,
	 <22, 23, 22, 32>,
	 <23, 24, 23, 22>,
	 <24, 41, 24, 23>,
	 <41, 43, 41, 24>,
	 <45, 25, 45, 38>,
	 <25, 42, 12, 25>,
	 <25, 26, 25, 45>,
	 <28, 42, 12, 28>,
	 <28, 29, 28, 27>,
	 <29, 36, 29, 28>,
	 <36, 39, 9, 36>,
	 <36, 40, 10, 36>,
	 <36, 34, 36, 29>,
	 <34, 9, 34, 39>,
	 <34, 10, 34, 40>,
	 <46, 24, 54, 46>,
	 <46, 38, 8, 46>,
	 <51, 54, 51, 24>,
	 <50, 54, 50, 24>,
	 <53, 54, 53, 24>,
	 <47, 4, 47, 34>,
	 <47, 9, 47, 39>,
	 <47, 10, 47, 40>,
	 <47, 49, 47, 48>,
	 <48, 5, 48, 35>,
	 <48, 6, 48, 36>,
	 <48, 19, 48, 49>,
	 <48, 34, 4, 48>,
	 <56, 59, 29, 56>,
	 <58, 59, 29, 58>,
	 <55, 59, 29, 55>,
	 }; 

DirectSuccessors = {
	 }; 

